(set-logic QF_NRA)
(set-info :source |Benchmarks generated from hycomp (https://es-static.fbk.eu/tools/hycomp/). BMC instances of non-linear hybrid automata taken from: Alessandro Cimatti, Sergio Mover, Stefano Tonetta, A quantifier-free SMT encoding of non-linear hybrid automata, FMCAD 2012 and Alessandro Cimatti, Sergio Mover, Stefano Tonetta, Quantier-free encoding of invariants for Hybrid Systems, Formal Methods in System Design. This instance solves a BMC problem of depth 0 and uses the quantifier free encoding with lemmas encoding. Contacts: Sergio Mover (mover@fbk.eu), Stefano Tonetta (tonettas@fbk.eu), Alessandro Cimatti (cimatti@fbk.eu).|)
(set-info :smt-lib-version 2.0)
(set-info :category "industrial")
(set-info :status unsat)
;; MathSAT API call trace
;; generated on Mon Mar 19 10:43:42 2012
(declare-fun m.delta__AT0 () Real)
(declare-fun m.EVENT.0__AT0 () Bool)
(declare-fun m.time__AT0 () Real)
(declare-fun m.EVENT.1__AT0 () Bool)
(declare-fun m.speed_y__AT0 () Real)
(declare-fun m.event_is_timed__AT0 () Bool)
(declare-fun m.speed_x__AT0 () Real)
(declare-fun m.x__AT0 () Real)
(declare-fun m.y__AT0 () Real)
(assert (let ((.def_427 (* m.speed_y__AT0 m.delta__AT0)))
(let ((.def_428 (* 10.0 .def_427)))
(let ((.def_78 (* m.delta__AT0 m.delta__AT0)))
(let ((.def_426 (* (- 49.0) .def_78)))
(let ((.def_429 (+ .def_426 .def_428)))
(let ((.def_430 (* 10.0 m.y__AT0)))
(let ((.def_432 (+ .def_430 .def_429)))
(let ((.def_457 (<= .def_432 0.0 )))
(let ((.def_465 (not .def_457)))
(let ((.def_455 (<= m.y__AT0 0.0 )))
(let ((.def_466 (or .def_455 .def_465)))
(let ((.def_39 (<= 0.0 m.y__AT0)))
(let ((.def_463 (not .def_39)))
(let ((.def_453 (<= 0.0 .def_432)))
(let ((.def_464 (or .def_453 .def_463)))
(let ((.def_467 (and .def_464 .def_466)))
(let ((.def_269 (<= m.speed_y__AT0 0.0 )))
(let ((.def_270 (not .def_269)))
(let ((.def_263 (* (- 49.0) m.delta__AT0)))
(let ((.def_264 (* 5.0 m.speed_y__AT0)))
(let ((.def_266 (+ .def_264 .def_263)))
(let ((.def_267 (<= .def_266 0.0 )))
(let ((.def_268 (not .def_267)))
(let ((.def_271 (or .def_268 .def_270)))
(let ((.def_272 (not .def_271)))
(let ((.def_468 (or .def_272 .def_467)))
(let ((.def_459 (not .def_453)))
(let ((.def_460 (or .def_39 .def_459)))
(let ((.def_456 (not .def_455)))
(let ((.def_458 (or .def_456 .def_457)))
(let ((.def_461 (and .def_458 .def_460)))
(let ((.def_278 (<= 0.0 .def_266)))
(let ((.def_279 (not .def_278)))
(let ((.def_21 (<= 0.0 m.speed_y__AT0)))
(let ((.def_277 (not .def_21)))
(let ((.def_280 (or .def_277 .def_279)))
(let ((.def_281 (not .def_280)))
(let ((.def_462 (or .def_281 .def_461)))
(let ((.def_469 (and .def_462 .def_468)))
(let ((.def_454 (and .def_39 .def_453)))
(let ((.def_470 (and .def_454 .def_469)))
(let ((.def_290 (and .def_267 .def_269)))
(let ((.def_287 (or .def_21 .def_279)))
(let ((.def_286 (or .def_267 .def_270)))
(let ((.def_288 (and .def_286 .def_287)))
(let ((.def_291 (and .def_288 .def_290)))
(let ((.def_285 (and .def_21 .def_278)))
(let ((.def_289 (and .def_285 .def_288)))
(let ((.def_292 (or .def_289 .def_291)))
(let ((.def_471 (and .def_292 .def_470)))
(let ((.def_433 (<= .def_432 1000.0 )))
(let ((.def_445 (not .def_433)))
(let ((.def_38 (<= m.y__AT0 100.0 )))
(let ((.def_446 (or .def_38 .def_445)))
(let ((.def_439 (<= 100.0 m.y__AT0)))
(let ((.def_443 (not .def_439)))
(let ((.def_437 (<= 1000.0 .def_432)))
(let ((.def_444 (or .def_437 .def_443)))
(let ((.def_447 (and .def_444 .def_446)))
(let ((.def_448 (or .def_272 .def_447)))
(let ((.def_438 (not .def_437)))
(let ((.def_440 (or .def_438 .def_439)))
(let ((.def_435 (not .def_38)))
(let ((.def_436 (or .def_433 .def_435)))
(let ((.def_441 (and .def_436 .def_440)))
(let ((.def_442 (or .def_281 .def_441)))
(let ((.def_449 (and .def_442 .def_448)))
(let ((.def_434 (and .def_38 .def_433)))
(let ((.def_450 (and .def_434 .def_449)))
(let ((.def_451 (and .def_292 .def_450)))
(let ((.def_88 (* (- (/ 49 10)) m.speed_y__AT0)))
(let ((.def_139 (* 3.0 .def_88)))
(let ((.def_323 (* (- 1.0) .def_139)))
(let ((.def_351 (* 2.0 .def_323)))
(let ((.def_395 (* (- 1.0) .def_351)))
(let ((.def_396 (* m.delta__AT0 .def_395)))
(let ((.def_397 (* (- 50.0) .def_396)))
(let ((.def_107 (* m.speed_x__AT0 m.speed_x__AT0)))
(let ((.def_215 (* (- 50.0) .def_107)))
(let ((.def_402 (+ .def_215 .def_397)))
(let ((.def_94 (* m.speed_y__AT0 m.speed_y__AT0)))
(let ((.def_213 (* (- 50.0) .def_94)))
(let ((.def_403 (+ .def_213 .def_402)))
(let ((.def_219 (* (- 7203.0) .def_78)))
(let ((.def_404 (+ .def_219 .def_403)))
(let ((.def_222 (* 490.0 m.y__AT0)))
(let ((.def_405 (+ .def_222 .def_404)))
(let ((.def_408 (<= 0.0 .def_405)))
(let ((.def_415 (not .def_408)))
(let ((.def_233 (* (- 5.0) .def_107)))
(let ((.def_232 (* (- 5.0) .def_94)))
(let ((.def_234 (+ .def_232 .def_233)))
(let ((.def_235 (* 49.0 m.y__AT0)))
(let ((.def_237 (+ .def_235 .def_234)))
(let ((.def_248 (<= 0.0 .def_237)))
(let ((.def_416 (or .def_248 .def_415)))
(let ((.def_406 (<= .def_405 0.0 )))
(let ((.def_238 (<= .def_237 0.0 )))
(let ((.def_239 (not .def_238)))
(let ((.def_414 (or .def_239 .def_406)))
(let ((.def_417 (and .def_414 .def_416)))
(let ((.def_418 (or .def_281 .def_417)))
(let ((.def_410 (not .def_406)))
(let ((.def_411 (or .def_238 .def_410)))
(let ((.def_249 (not .def_248)))
(let ((.def_409 (or .def_249 .def_408)))
(let ((.def_412 (and .def_409 .def_411)))
(let ((.def_413 (or .def_272 .def_412)))
(let ((.def_419 (and .def_413 .def_418)))
(let ((.def_407 (and .def_238 .def_406)))
(let ((.def_420 (and .def_407 .def_419)))
(let ((.def_421 (and .def_292 .def_420)))
(let ((.def_352 (* m.delta__AT0 .def_351)))
(let ((.def_353 (* 50.0 .def_352)))
(let ((.def_358 (+ .def_215 .def_353)))
(let ((.def_359 (+ .def_213 .def_358)))
(let ((.def_360 (+ .def_219 .def_359)))
(let ((.def_361 (+ .def_222 .def_360)))
(let ((.def_372 (<= .def_361 0.0 )))
(let ((.def_373 (not .def_372)))
(let ((.def_389 (or .def_238 .def_373)))
(let ((.def_362 (<= 0.0 .def_361)))
(let ((.def_388 (or .def_249 .def_362)))
(let ((.def_390 (and .def_388 .def_389)))
(let ((.def_391 (or .def_272 .def_390)))
(let ((.def_363 (not .def_362)))
(let ((.def_385 (or .def_248 .def_363)))
(let ((.def_384 (or .def_239 .def_372)))
(let ((.def_386 (and .def_384 .def_385)))
(let ((.def_387 (or .def_281 .def_386)))
(let ((.def_392 (and .def_387 .def_391)))
(let ((.def_383 (and .def_248 .def_362)))
(let ((.def_393 (and .def_383 .def_392)))
(let ((.def_394 (and .def_292 .def_393)))
(let ((.def_422 (or .def_394 .def_421)))
(let ((.def_155 (* 2.0 .def_107)))
(let ((.def_335 (* (- 1.0) .def_155)))
(let ((.def_336 (* m.delta__AT0 .def_335)))
(let ((.def_337 (* 25.0 .def_336)))
(let ((.def_99 (* (- (/ 49 10)) m.y__AT0)))
(let ((.def_151 (* 2.0 .def_99)))
(let ((.def_331 (* (- 1.0) .def_151)))
(let ((.def_332 (* m.delta__AT0 .def_331)))
(let ((.def_333 (* 50.0 .def_332)))
(let ((.def_342 (+ .def_333 .def_337)))
(let ((.def_145 (* 2.0 .def_94)))
(let ((.def_327 (* (- 1.0) .def_145)))
(let ((.def_328 (* m.delta__AT0 .def_327)))
(let ((.def_329 (* 25.0 .def_328)))
(let ((.def_343 (+ .def_329 .def_342)))
(let ((.def_324 (* .def_78 .def_323)))
(let ((.def_325 (* 50.0 .def_324)))
(let ((.def_344 (+ .def_325 .def_343)))
(let ((.def_111 (* m.x__AT0 m.speed_x__AT0)))
(let ((.def_163 (* (- 50.0) .def_111)))
(let ((.def_345 (+ .def_163 .def_344)))
(let ((.def_103 (* m.y__AT0 m.speed_y__AT0)))
(let ((.def_161 (* (- 50.0) .def_103)))
(let ((.def_346 (+ .def_161 .def_345)))
(let ((.def_79 (* m.delta__AT0 .def_78)))
(let ((.def_159 (* (- 2401.0) .def_79)))
(let ((.def_347 (+ .def_159 .def_346)))
(let ((.def_166 (* 1000.0 m.speed_x__AT0)))
(let ((.def_348 (+ .def_166 .def_347)))
(let ((.def_366 (<= .def_348 0.0 )))
(let ((.def_377 (not .def_366)))
(let ((.def_178 (* (- 1.0) .def_111)))
(let ((.def_177 (* (- 1.0) .def_103)))
(let ((.def_179 (+ .def_177 .def_178)))
(let ((.def_180 (* 20.0 m.speed_x__AT0)))
(let ((.def_182 (+ .def_180 .def_179)))
(let ((.def_183 (<= .def_182 0.0 )))
(let ((.def_378 (or .def_183 .def_377)))
(let ((.def_349 (<= 0.0 .def_348)))
(let ((.def_197 (<= 0.0 .def_182)))
(let ((.def_198 (not .def_197)))
(let ((.def_376 (or .def_198 .def_349)))
(let ((.def_379 (and .def_376 .def_378)))
(let ((.def_374 (or .def_239 .def_373)))
(let ((.def_375 (not .def_374)))
(let ((.def_380 (or .def_375 .def_379)))
(let ((.def_368 (not .def_349)))
(let ((.def_369 (or .def_197 .def_368)))
(let ((.def_184 (not .def_183)))
(let ((.def_367 (or .def_184 .def_366)))
(let ((.def_370 (and .def_367 .def_369)))
(let ((.def_364 (or .def_249 .def_363)))
(let ((.def_365 (not .def_364)))
(let ((.def_371 (or .def_365 .def_370)))
(let ((.def_381 (and .def_371 .def_380)))
(let ((.def_350 (and .def_197 .def_349)))
(let ((.def_382 (and .def_350 .def_381)))
(let ((.def_423 (and .def_382 .def_422)))
(let ((.def_210 (* 2.0 .def_139)))
(let ((.def_294 (* (- 1.0) .def_210)))
(let ((.def_295 (* m.delta__AT0 .def_294)))
(let ((.def_296 (* 50.0 .def_295)))
(let ((.def_301 (+ .def_215 .def_296)))
(let ((.def_302 (+ .def_213 .def_301)))
(let ((.def_303 (+ .def_219 .def_302)))
(let ((.def_304 (+ .def_222 .def_303)))
(let ((.def_307 (<= .def_304 0.0 )))
(let ((.def_314 (not .def_307)))
(let ((.def_315 (or .def_238 .def_314)))
(let ((.def_305 (<= 0.0 .def_304)))
(let ((.def_313 (or .def_249 .def_305)))
(let ((.def_316 (and .def_313 .def_315)))
(let ((.def_317 (or .def_272 .def_316)))
(let ((.def_309 (not .def_305)))
(let ((.def_310 (or .def_248 .def_309)))
(let ((.def_308 (or .def_239 .def_307)))
(let ((.def_311 (and .def_308 .def_310)))
(let ((.def_312 (or .def_281 .def_311)))
(let ((.def_318 (and .def_312 .def_317)))
(let ((.def_306 (and .def_248 .def_305)))
(let ((.def_319 (and .def_306 .def_318)))
(let ((.def_320 (and .def_292 .def_319)))
(let ((.def_211 (* m.delta__AT0 .def_210)))
(let ((.def_212 (* (- 50.0) .def_211)))
(let ((.def_224 (+ .def_215 .def_212)))
(let ((.def_225 (+ .def_213 .def_224)))
(let ((.def_226 (+ .def_219 .def_225)))
(let ((.def_227 (+ .def_222 .def_226)))
(let ((.def_246 (<= 0.0 .def_227)))
(let ((.def_247 (not .def_246)))
(let ((.def_275 (or .def_247 .def_248)))
(let ((.def_228 (<= .def_227 0.0 )))
(let ((.def_274 (or .def_228 .def_239)))
(let ((.def_276 (and .def_274 .def_275)))
(let ((.def_282 (or .def_276 .def_281)))
(let ((.def_229 (not .def_228)))
(let ((.def_260 (or .def_229 .def_238)))
(let ((.def_259 (or .def_246 .def_249)))
(let ((.def_261 (and .def_259 .def_260)))
(let ((.def_273 (or .def_261 .def_272)))
(let ((.def_283 (and .def_273 .def_282)))
(let ((.def_258 (and .def_228 .def_238)))
(let ((.def_284 (and .def_258 .def_283)))
(let ((.def_293 (and .def_284 .def_292)))
(let ((.def_321 (or .def_293 .def_320)))
(let ((.def_156 (* m.delta__AT0 .def_155)))
(let ((.def_157 (* (- 25.0) .def_156)))
(let ((.def_152 (* m.delta__AT0 .def_151)))
(let ((.def_153 (* (- 50.0) .def_152)))
(let ((.def_168 (+ .def_153 .def_157)))
(let ((.def_146 (* m.delta__AT0 .def_145)))
(let ((.def_149 (* (- 25.0) .def_146)))
(let ((.def_169 (+ .def_149 .def_168)))
(let ((.def_140 (* .def_78 .def_139)))
(let ((.def_143 (* (- 50.0) .def_140)))
(let ((.def_170 (+ .def_143 .def_169)))
(let ((.def_171 (+ .def_163 .def_170)))
(let ((.def_172 (+ .def_161 .def_171)))
(let ((.def_173 (+ .def_159 .def_172)))
(let ((.def_174 (+ .def_166 .def_173)))
(let ((.def_195 (<= 0.0 .def_174)))
(let ((.def_196 (not .def_195)))
(let ((.def_253 (or .def_196 .def_197)))
(let ((.def_175 (<= .def_174 0.0 )))
(let ((.def_252 (or .def_175 .def_184)))
(let ((.def_254 (and .def_252 .def_253)))
(let ((.def_250 (or .def_247 .def_249)))
(let ((.def_251 (not .def_250)))
(let ((.def_255 (or .def_251 .def_254)))
(let ((.def_176 (not .def_175)))
(let ((.def_243 (or .def_176 .def_183)))
(let ((.def_242 (or .def_195 .def_198)))
(let ((.def_244 (and .def_242 .def_243)))
(let ((.def_240 (or .def_229 .def_239)))
(let ((.def_241 (not .def_240)))
(let ((.def_245 (or .def_241 .def_244)))
(let ((.def_256 (and .def_245 .def_255)))
(let ((.def_209 (and .def_175 .def_183)))
(let ((.def_257 (and .def_209 .def_256)))
(let ((.def_322 (and .def_257 .def_321)))
(let ((.def_424 (or .def_322 .def_423)))
(let ((.def_115 (* (- 20.0) m.speed_x__AT0)))
(let ((.def_116 (* m.delta__AT0 .def_115)))
(let ((.def_117 (* (- 200.0) .def_116)))
(let ((.def_112 (* m.delta__AT0 .def_111)))
(let ((.def_113 (* (- 200.0) .def_112)))
(let ((.def_126 (+ .def_113 .def_117)))
(let ((.def_108 (* .def_78 .def_107)))
(let ((.def_109 (* (- 100.0) .def_108)))
(let ((.def_127 (+ .def_109 .def_126)))
(let ((.def_104 (* m.delta__AT0 .def_103)))
(let ((.def_105 (* (- 200.0) .def_104)))
(let ((.def_128 (+ .def_105 .def_127)))
(let ((.def_100 (* .def_78 .def_99)))
(let ((.def_101 (* (- 200.0) .def_100)))
(let ((.def_129 (+ .def_101 .def_128)))
(let ((.def_95 (* .def_78 .def_94)))
(let ((.def_97 (* (- 100.0) .def_95)))
(let ((.def_130 (+ .def_97 .def_129)))
(let ((.def_89 (* .def_79 .def_88)))
(let ((.def_92 (* (- 200.0) .def_89)))
(let ((.def_131 (+ .def_92 .def_130)))
(let ((.def_80 (* m.delta__AT0 .def_79)))
(let ((.def_83 (* (- 2401.0) .def_80)))
(let ((.def_132 (+ .def_83 .def_131)))
(let ((.def_70 (* m.x__AT0 m.x__AT0)))
(let ((.def_121 (* (- 100.0) .def_70)))
(let ((.def_133 (+ .def_121 .def_132)))
(let ((.def_31 (* m.y__AT0 m.y__AT0)))
(let ((.def_119 (* (- 100.0) .def_31)))
(let ((.def_134 (+ .def_119 .def_133)))
(let ((.def_124 (* 4000.0 m.x__AT0)))
(let ((.def_135 (+ .def_124 .def_134)))
(let ((.def_189 (<= 0.0 .def_135)))
(let ((.def_203 (not .def_189)))
(let ((.def_71 (* (- 1.0) .def_70)))
(let ((.def_69 (* (- 1.0) .def_31)))
(let ((.def_72 (+ .def_69 .def_71)))
(let ((.def_74 (* 40.0 m.x__AT0)))
(let ((.def_76 (+ .def_74 .def_72)))
(let ((.def_187 (<= 0.0 .def_76)))
(let ((.def_204 (or .def_187 .def_203)))
(let ((.def_77 (<= .def_76 0.0 )))
(let ((.def_201 (not .def_77)))
(let ((.def_136 (<= .def_135 0.0 )))
(let ((.def_202 (or .def_136 .def_201)))
(let ((.def_205 (and .def_202 .def_204)))
(let ((.def_199 (or .def_196 .def_198)))
(let ((.def_200 (not .def_199)))
(let ((.def_206 (or .def_200 .def_205)))
(let ((.def_191 (not .def_136)))
(let ((.def_192 (or .def_77 .def_191)))
(let ((.def_188 (not .def_187)))
(let ((.def_190 (or .def_188 .def_189)))
(let ((.def_193 (and .def_190 .def_192)))
(let ((.def_185 (or .def_176 .def_184)))
(let ((.def_186 (not .def_185)))
(let ((.def_194 (or .def_186 .def_193)))
(let ((.def_207 (and .def_194 .def_206)))
(let ((.def_137 (and .def_77 .def_136)))
(let ((.def_208 (and .def_137 .def_207)))
(let ((.def_425 (and .def_208 .def_424)))
(let ((.def_452 (and .def_425 .def_451)))
(let ((.def_472 (and .def_452 .def_471)))
(let ((.def_46 (* m.speed_x__AT0 m.delta__AT0)))
(let ((.def_47 (+ m.x__AT0 .def_46)))
(let ((.def_52 (<= .def_47 0.0 )))
(let ((.def_61 (not .def_52)))
(let ((.def_50 (<= m.x__AT0 0.0 )))
(let ((.def_62 (or .def_50 .def_61)))
(let ((.def_35 (<= 0.0 m.x__AT0)))
(let ((.def_59 (not .def_35)))
(let ((.def_48 (<= 0.0 .def_47)))
(let ((.def_60 (or .def_48 .def_59)))
(let ((.def_63 (and .def_60 .def_62)))
(let ((.def_58 (<= m.speed_x__AT0 0.0 )))
(let ((.def_64 (or .def_58 .def_63)))
(let ((.def_54 (not .def_48)))
(let ((.def_55 (or .def_35 .def_54)))
(let ((.def_51 (not .def_50)))
(let ((.def_53 (or .def_51 .def_52)))
(let ((.def_56 (and .def_53 .def_55)))
(let ((.def_18 (<= 0.0 m.speed_x__AT0)))
(let ((.def_57 (or .def_18 .def_56)))
(let ((.def_65 (and .def_57 .def_64)))
(let ((.def_49 (and .def_35 .def_48)))
(let ((.def_66 (and .def_49 .def_65)))
(let ((.def_473 (and .def_66 .def_472)))
(let ((.def_40 (and .def_38 .def_39)))
(let ((.def_29 (+ m.x__AT0 (- 20.0) )))
(let ((.def_30 (* .def_29 .def_29)))
(let ((.def_32 (+ .def_30 .def_31)))
(let ((.def_34 (<= 400.0 .def_32)))
(let ((.def_36 (and .def_34 .def_35)))
(let ((.def_41 (and .def_36 .def_40)))
(let ((.def_26 (not m.EVENT.0__AT0)))
(let ((.def_24 (not m.EVENT.1__AT0)))
(let ((.def_27 (or .def_24 .def_26)))
(let ((.def_42 (and .def_27 .def_41)))
(let ((.def_15 (= m.y__AT0 0.0 )))
(let ((.def_12 (= m.x__AT0 0.0 )))
(let ((.def_9 (= m.time__AT0 0.0 )))
(let ((.def_11 (and .def_9 m.event_is_timed__AT0)))
(let ((.def_13 (and .def_11 .def_12)))
(let ((.def_16 (and .def_13 .def_15)))
(let ((.def_19 (and .def_16 .def_18)))
(let ((.def_22 (and .def_19 .def_21)))
(let ((.def_43 (and .def_22 .def_42)))
(let ((.def_5 (<= m.x__AT0 20.0 )))
(let ((.def_6 (not .def_5)))
(let ((.def_44 (and .def_6 .def_43)))
(let ((.def_474 (and .def_44 .def_473)))
.def_474))))))))))))))))))))))))))))))))))))))))))))))))))))))))))))))))))))))))))))))))))))))))))))))))))))))))))))))))))))))))))))))))))))))))))))))))))))))))))))))))))))))))))))))))))))))))))))))))))))))))))))))))))))))))))))))))))))))))))))))))))))))))))))))))))))))))))))))))))))))))))))))))))))))))))))))))))))))))))))))))))))))))))))))))))))))))))))))))))))))))))))))))))))))))))))))))))))
(check-sat)
(exit)
